id: 1014
name: atlanta-ip
group: miplib2010
method: 2

Gurobi 7.0.2 (linux64, Matlab) logging started Mon Mar 26 10:11:46 2018


Gurobi 7.0.2 (linux64) logging started Mon Mar 26 10:11:46 2018

Optimize a model with 21732 rows, 48738 columns and 257532 nonzeros
Coefficient statistics:
  Matrix range     [3e-02, 6e+01]
  Objective range  [1e-06, 2e+01]
  Bounds range     [1e+00, 2e+09]
  RHS range        [1e-01, 1e+05]
Warning: Model contains large bounds
         Consider reformulating model or setting NumericFocus parameter
         to avoid numerical issues.
Presolve removed 1948 rows and 31342 columns
Presolve time: 0.08s
Presolved: 19784 rows, 17396 columns, 182628 nonzeros

Ordering time: 0.49s

Barrier statistics:
 Dense cols : 232
 AA' NZ     : 7.427e+05
 Factor NZ  : 3.956e+06 (roughly 50 MBytes of memory)
 Factor Ops : 2.717e+09 (less than 1 second per iteration)
 Threads    : 4

                  Objective                Residual
Iter       Primal          Dual         Primal    Dual     Compl     Time
   0   1.10018889e+06 -1.28071505e+03  1.71e+05 3.36e-01  1.94e+03     1s
   1   7.46976386e+05 -6.41682936e+04  1.01e+05 1.35e+00  1.15e+03     1s
   2   5.93747709e+05 -7.91923850e+04  7.49e+04 2.58e+00  8.09e+02     1s
   3   2.44262441e+05 -4.32430580e+04  2.87e+04 4.00e+00  3.23e+02     1s
   4   7.38547765e+03 -1.76293873e+04  8.36e+02 8.43e-01  9.80e+00     1s
   5   4.75369363e+02 -1.33865299e+04  4.14e+01 1.16e+00  7.10e-01     1s
   6   2.42529451e+02 -8.71803393e+03  1.26e+01 4.08e-01  2.76e-01     1s
   7   1.83789107e+02 -4.41203836e+03  5.01e+00 3.42e-01  1.15e-01     1s
   8   1.59866631e+02 -1.26814220e+03  2.05e+00 7.84e-02  3.26e-02     1s
   9   1.48330296e+02 -3.31773556e+02  1.20e+00 3.17e-02  1.07e-02     1s
  10   1.40710826e+02 -1.98947901e+02  9.39e-01 2.10e-02  7.51e-03     1s
  11   1.21333640e+02 -7.58551496e+01  4.76e-01 1.42e-02  4.26e-03     1s
  12   1.05807913e+02  1.48202001e+00  2.96e-01 7.53e-03  2.25e-03     2s
  13   9.47349713e+01  2.93351192e+01  1.87e-01 5.56e-03  1.41e-03     2s
  14   8.98099795e+01  4.61707027e+01  1.33e-01 1.18e-02  9.39e-04     2s
  15   8.58308455e+01  6.08910754e+01  7.96e-02 7.43e-03  5.37e-04     2s
  16   8.41612602e+01  6.76615299e+01  5.35e-02 4.84e-03  3.55e-04     2s
  17   8.29022913e+01  7.12778154e+01  3.25e-02 3.54e-03  2.48e-04     2s
  18   8.24077658e+01  7.44013605e+01  2.32e-02 2.38e-03  1.71e-04     2s
  19   8.19574924e+01  7.79770475e+01  1.47e-02 1.06e-03  8.59e-05     2s
  20   8.15893450e+01  7.95309686e+01  7.45e-03 5.06e-04  4.43e-05     2s
  21   8.14290234e+01  8.03682108e+01  3.98e-03 2.42e-04  2.29e-05     2s
  22   8.13653141e+01  8.05993969e+01  2.56e-03 1.72e-04  1.64e-05     2s
  23   8.13389651e+01  8.08638538e+01  1.96e-03 1.00e-04  1.03e-05     2s
  24   8.13159745e+01  8.09976316e+01  1.42e-03 6.49e-05  6.91e-06     2s
  25   8.12905625e+01  8.10636680e+01  8.50e-04 4.75e-05  4.89e-06     2s
  26   8.12760881e+01  8.11816989e+01  4.95e-04 1.72e-05  2.07e-06     2s
  27   8.12602859e+01  8.12218413e+01  1.93e-04 1.01e-05  8.40e-07     2s
  28   8.12508709e+01  8.12335121e+01  6.89e-05 4.75e-06  3.75e-07     3s
  29   8.12479605e+01  8.12356824e+01  3.95e-05 3.72e-06  2.63e-07     3s
  30   8.12467447e+01  8.12387895e+01  2.78e-05 2.24e-06  1.71e-07     3s
  31   8.12460755e+01  8.12403045e+01  2.20e-05 1.42e-06  1.25e-07     3s
  32   8.12449114e+01  8.12417445e+01  1.27e-05 6.95e-07  6.84e-08     3s
  33   8.12439886e+01  8.12426866e+01  5.72e-06 3.65e-07  2.83e-08     3s
  34   8.12433861e+01  8.12431189e+01  1.25e-06 4.95e-08  5.81e-09     3s
  35   8.12433830e+01  8.12431199e+01  1.23e-06 4.21e-08  5.72e-09     3s
  36   8.12433822e+01  8.12431334e+01  1.22e-06 9.51e-07  5.41e-09     3s
  37   8.12433690e+01  8.12431485e+01  1.13e-06 1.55e-06  4.78e-09     3s
  38   8.12432983e+01  8.12431739e+01  6.61e-07 9.52e-07  2.70e-09     3s
  39   8.12432975e+01  8.12431755e+01  5.73e-07 1.40e-06  2.66e-09     3s
  40   8.12432974e+01  8.12431766e+01  5.73e-07 1.28e-06  2.64e-09     3s
  41   8.12432818e+01  8.12431824e+01  1.20e-06 1.50e-06  2.17e-09     3s
  42   8.12432645e+01  8.12431795e+01  1.05e-06 3.14e-06  1.75e-09     4s
  43   8.12432580e+01  8.12431899e+01  9.50e-07 1.15e-06  1.42e-09     4s
  44   8.12432578e+01  8.12431899e+01  9.41e-07 1.14e-06  1.41e-09     4s
  45   8.12432577e+01  8.12431924e+01  9.35e-07 1.33e-06  1.39e-09     4s
  46   8.12432308e+01  8.12431929e+01  2.34e-06 1.16e-06  8.02e-10     4s
  47   8.12432300e+01  8.12431929e+01  2.33e-06 1.15e-06  7.98e-10     4s
  48   8.12432201e+01  8.12431929e+01  3.45e-06 1.15e-06  7.95e-10     4s
  49   8.12432161e+01  8.12431930e+01  4.57e-06 1.12e-06  7.71e-10     4s
  50   8.12432157e+01  8.12431931e+01  4.67e-06 1.09e-06  7.66e-10     4s
  51   8.12432163e+01  8.12431931e+01  4.46e-06 1.09e-06  7.66e-10     4s
  52   8.12432155e+01  8.12431931e+01  4.72e-06 1.09e-06  7.66e-10     4s
  53   8.12432194e+01  8.12431931e+01  3.42e-06 1.08e-06  7.64e-10     4s
  54   8.12432198e+01  8.12431931e+01  3.27e-06 1.09e-06  7.64e-10     4s
  55   8.12432198e+01  8.12431931e+01  3.27e-06 1.09e-06  7.63e-10     4s
  56   8.12432192e+01  8.12431932e+01  3.46e-06 1.08e-06  7.62e-10     5s

Barrier solved model in 56 iterations and 4.57 seconds
Optimal objective 8.12433830e+01

Crossover log...

       0 DPushes remaining with DInf 6.1152571e-14                 5s

   10102 PPushes remaining with PInf 6.2246090e-04                 5s
       0 PPushes remaining with PInf 0.0000000e+00                 5s

  Push phase complete: Pinf 0.0000000e+00, Dinf 1.4854001e-01      5s

Iteration    Objective       Primal Inf.    Dual Inf.      Time
   12723    8.1243200e+01   0.000000e+00   1.485400e-01      5s
   13686    8.1243199e+01   0.000000e+00   0.000000e+00      5s

Solved in 13686 iterations and 4.91 seconds
Optimal objective  8.124319883e+01
status: OPTIMAL
